c This Formular is generated by mcnf
c
c    horn? no 
c    forced? no 
c    mixed sat? no 
c    clause length = 3 
c
p cnf 20  91 
 8 1 -15 0
-13 16 -10 0
13 12 2 0
-20 -12 11 0
16 -17 11 0
10 19 -9 0
17 -1 9 0
7 -11 2 0
-8 -17 -19 0
-3 -12 -8 0
1 18 9 0
1 7 12 0
14 -16 3 0
10 9 -8 0
10 16 8 0
-3 -8 5 0
14 -13 17 0
7 -14 17 0
19 -5 18 0
-6 2 17 0
20 -6 11 0
-14 -11 16 0
